NAME : 10_3_3_2_(42).dat
COMMENT : Henke, Speranza, Wäscher, 2015
TYPE : MCVRP
DIMENSION : 11
EDGE_WEIGHT_TYPE : DISTANCE_MATRIX
CAPACITY : 1000
VEHICLES : 3
PRODUCT TYPES : 3
COMPARTMENTS : 3
NODE_COORD_SECTION
1 50 50
2 68.9 83.81
3 68.51 1.8
4 16.69 71.36
5 40.4 77.18
6 60.91 26.57
7 50.2 44.48
8 76.54 40.62
9 44.23 13.73
10 18.37 26.49
11 60.19 22.67
DEMAND_SECTION
1 0 0 0
2 73 0 8
3 108 135 0
4 85 140 0
5 96 0 15
6 58 0 80
7 34 112 0
8 117 0 15
9 76 0 109
10 63 0 86
11 76 84 0
DEPOT_SECTION
1
EOF